17	4
33	52	35	59	
0	0	0	0	0	3	2	3	4	
2	8	1	2	4	3	5	8	17	
9	1	9	1	3	1	17	
3	4	7	1	9	3	6	9	15	
7	10	8	7	10	2	7	12	
50	10	10	9	2	2	14	17	
225	5	4	5	5	2	17	17	
200	4	9	4	3	1	10	
250	3	1	2	10	1	11	
125	3	7	8	9	2	13	16	
175	4	2	2	4	2	17	17	
100	4	6	4	7	1	17	
2	4	10	10	7	2	17	17	
2	4	5	1	8	2	17	17	
8	2	6	4	8	2	17	17	
10	7	1	2	6	2	17	17	
0	0	0	0	0	0	
